Version identifier: 20.1.0.0 | 2020-11-10 | 9bedb6d68
CPXPARAM_Threads                                 1
CPXPARAM_TimeLimit                               100
Generic callback                                 0xfe
Tried aggregator 1 time.
MIP Presolve eliminated 4 rows and 10 columns.
MIP Presolve modified 8 coefficients.
Reduced MIP has 118 rows, 713 columns, and 2015 nonzeros.
Reduced MIP has 712 binaries, 0 generals, 0 SOSs, and 0 indicators.
Presolve time = 0.00 sec. (0.77 ticks)
Probing time = 0.00 sec. (0.99 ticks)
Tried aggregator 1 time.
Reduced MIP has 118 rows, 713 columns, and 2015 nonzeros.
Reduced MIP has 712 binaries, 0 generals, 0 SOSs, and 0 indicators.
Presolve time = 0.00 sec. (0.74 ticks)
Probing time = 0.00 sec. (1.00 ticks)
Clique table members: 711.
MIP emphasis: balance optimality and feasibility.
MIP search method: dynamic search.
Parallel mode: none, using 1 thread.
Root relaxation solution time = 0.00 sec. (0.34 ticks)

        Nodes                                         Cuts/
   Node  Left     Objective  IInf  Best Integer    Best Bound    ItCnt     Gap

      0     0    16084.4286    14                      0.0000        3         
      0     0    20939.4500    10                     Cuts: 3       36         
*     0+    0                        31775.8400    20939.4500            34.10%

Repeating presolve.
Tried aggregator 2 times.
MIP Presolve eliminated 22 rows and 414 columns.
MIP Presolve modified 3 coefficients.
Aggregator did 9 substitutions.
Reduced MIP has 87 rows, 290 columns, and 776 nonzeros.
Reduced MIP has 289 binaries, 0 generals, 0 SOSs, and 0 indicators.
Presolve time = 0.00 sec. (1.08 ticks)
Probing time = 0.00 sec. (0.50 ticks)
Tried aggregator 1 time.
Reduced MIP has 87 rows, 290 columns, and 776 nonzeros.
Reduced MIP has 289 binaries, 0 generals, 0 SOSs, and 0 indicators.
Presolve time = 0.00 sec. (0.34 ticks)
Represolve time = 0.00 sec. (2.51 ticks)
Probing time = 0.00 sec. (0.49 ticks)
Clique table members: 704.
MIP emphasis: balance optimality and feasibility.
MIP search method: dynamic search.
Parallel mode: none, using 1 thread.
Root relaxation solution time = 0.00 sec. (0.41 ticks)

        Nodes                                         Cuts/
   Node  Left     Objective  IInf  Best Integer    Best Bound    ItCnt     Gap

*     0+    0                        31775.8400    22091.6200            30.48%
      0     0    22091.6200     2    31775.8400    22091.6200       53   30.48%
      0     0    22390.5618    17    31775.8400      Fract: 1       72   29.54%

Repeating presolve.
Tried aggregator 2 times.
MIP Presolve eliminated 16 rows and 74 columns.
Aggregator did 2 substitutions.
Reduced MIP has 69 rows, 214 columns, and 566 nonzeros.
Reduced MIP has 213 binaries, 0 generals, 0 SOSs, and 0 indicators.
Presolve time = 0.00 sec. (0.33 ticks)
Probing time = 0.00 sec. (0.35 ticks)
Tried aggregator 1 time.
Reduced MIP has 69 rows, 214 columns, and 566 nonzeros.
Reduced MIP has 213 binaries, 0 generals, 0 SOSs, and 0 indicators.
Presolve time = 0.00 sec. (0.25 ticks)
Represolve time = 0.00 sec. (1.54 ticks)
Probing time = 0.00 sec. (0.35 ticks)
Clique table members: 455.
MIP emphasis: balance optimality and feasibility.
MIP search method: dynamic search.
Parallel mode: none, using 1 thread.
Root relaxation solution time = 0.00 sec. (0.64 ticks)

        Nodes                                         Cuts/
   Node  Left     Objective  IInf  Best Integer    Best Bound    ItCnt     Gap

*     0+    0                        31775.8400    22390.5618            29.54%
      0     0    22604.8668    31    31775.8400    22604.8668      117   28.86%
      0     2    22817.9378    33    31775.8400    22837.2176      117   28.13%
Elapsed time = 1.33 sec. (50.56 ticks, tree = 0.01 MB, solutions = 1)

Zero-half cuts applied:  1
Gomory fractional cuts applied:  2
User cuts applied:  96

Root node processing (before b&c):
  Real time             =    1.33 sec. (50.61 ticks)
Sequential b&c:
  Real time             =    0.17 sec. (67.49 ticks)
                          ------------
Total (root+branch&cut) =    1.50 sec. (118.10 ticks)
SOLUTION ADMISSIBLE TROUVEE 31775.839999999997 31775.84 64.0 73.0
